Route 1: 58 38 7 50 43 66
Route 2: 40 26 11 29
Route 3: 89 68 78 15
Route 4: 60 61 83
Route 5: 5 19 51
Route 6: 65 88 37 30 44 46 3 8 73
Route 7: 45 41 64 59 13
Route 8: 81 18 9
Route 9: 57 95 4
Route 10: 67 85 91 14
Route 11: 77 17 70 75
Route 12: 39 48 27 49 97 35
Route 13: 93 10 56
Route 14: 101 53 92
Route 15: 16 71 87
Route 16: 28 98 20
Route 17: 69 55 2 6
Route 18: 24 62 22
Route 19: 23 42 21
Route 20: 90 99 100 63 72
Route 21: 36 47 32
Route 22: 80 12 86 31
Route 23: 33 34 54 74 96 25
Route 24: 82 52 84
Route 25: 94 76 79
Cost 28344.66
